34
43
31
34
37
40
45
41
48
40
43
45
38
47
35
34
43
35
42
46
19
24
16
29
20
14
25
27
10
19
26
10
12
24
27
24
27
11
18
18
14
15
18
19
25
15
21
12
19
24
24
12
27
10
16
19
20
15
18
11
24
21
16
16
19
26
12
15
25
26
10
18
29
12
10
26
27
28
28
17
13
29
24
20
14
23
26
13
19
17
22
11
26
10
10
23
22
14
20
29
